(set-logic QF_LRA)
(declare-fun fluent_treated_plt0_t0@1 () Bool)
(declare-fun fluent_treated_plt0_t1@1 () Bool)
(declare-fun fluent_robot_at_r0_p0@0 () Bool)
(declare-fun fluent_robot_at_r0_p1@0 () Bool)
(declare-fun fluent_position_free_p0@1 () Bool)
(declare-fun fluent_robot_free_r0@0 () Bool)
(declare-fun fluent_position_free_p1@1 () Bool)
(declare-fun fluent_pallet_at_plt0_p0@0 () Bool)
(declare-fun fluent_pallet_at_plt0_p1@0 () Bool)
(declare-fun fluent_battery_level_r0@0 () Real)
(declare-fun act_load_at_depot@1 () Bool)
(declare-fun parameter_load_at_depot_pos@1 () Real)
(declare-fun parameter_load_at_depot_r@1 () Real)
(declare-fun fluent_position_free_p0@0 () Bool)
(declare-fun fluent_position_free_p1@0 () Bool)
(declare-fun parameter_load_at_depot_pallet@1 () Real)
(declare-fun fluent_robot_has_r0_plt0@0 () Bool)
(declare-fun fluent_ready_plt0_p0_t0@0 () Bool)
(declare-fun fluent_ready_plt0_p1_t0@0 () Bool)
(declare-fun fluent_ready_plt0_p0_t1@0 () Bool)
(declare-fun fluent_ready_plt0_p1_t1@0 () Bool)
(declare-fun act_unload_at_depot@1 () Bool)
(declare-fun parameter_unload_at_depot_pos@1 () Real)
(declare-fun parameter_unload_at_depot_r@1 () Real)
(declare-fun fluent_treated_plt0_t0@0 () Bool)
(declare-fun fluent_treated_plt0_t1@0 () Bool)
(declare-fun parameter_unload_at_depot_pallet@1 () Real)
(declare-fun act_move@1 () Bool)
(declare-fun parameter_move_topos@1 () Real)
(declare-fun parameter_move_frompos@1 () Real)
(declare-fun dur_make_treatment@1 () Real)
(declare-fun parameter_move_r@1 () Real)
(declare-fun t@1 () Real)
(declare-fun parameter_make_treatment_t@1 () Real)
(declare-fun fluent_robot_at_r0_p0@1 () Bool)
(declare-fun fluent_robot_at_r0_p1@1 () Bool)
(declare-fun parameter_make_treatment_pallet@1 () Real)
(declare-fun parameter_make_treatment_r@1 () Real)
(declare-fun parameter_make_treatment_pos@1 () Real)
(declare-fun fluent_battery_level_r0@1 () Real)
(declare-fun act_load@1 () Bool)
(declare-fun parameter_load_t@1 () Real)
(declare-fun parameter_load_pos@1 () Real)
(declare-fun parameter_load_pallet@1 () Real)
(declare-fun parameter_load_r@1 () Real)
(declare-fun fluent_robot_free_r0@1 () Bool)
(declare-fun fluent_ready_plt0_p0_t0@1 () Bool)
(declare-fun fluent_ready_plt0_p1_t0@1 () Bool)
(declare-fun fluent_ready_plt0_p0_t1@1 () Bool)
(declare-fun act_make_treatment@1 () Bool)
(declare-fun fluent_ready_plt0_p1_t1@1 () Bool)
(declare-fun fluent_pallet_at_plt0_p0@1 () Bool)
(declare-fun fluent_pallet_at_plt0_p1@1 () Bool)
(declare-fun fluent_robot_has_r0_plt0@1 () Bool)
(assert (let ((.def_0 (= parameter_load_r@1 0.0))) (let ((.def_1 (= parameter_load_pallet@1 3.0))) (let ((.def_2 (= parameter_load_pos@1 2.0))) (let ((.def_3 (= parameter_load_pos@1 1.0))) (let ((.def_4 (or .def_3 .def_2))) (let ((.def_5 (= parameter_load_t@1 5.0))) (let ((.def_6 (= parameter_load_t@1 4.0))) (let ((.def_7 (or .def_6 .def_5))) (let ((.def_8 (= parameter_make_treatment_pos@1 2.0))) (let ((.def_9 (= parameter_make_treatment_pos@1 1.0))) (let ((.def_10 (or .def_9 .def_8))) (let ((.def_11 (<= fluent_battery_level_r0@1 100.0))) (let ((.def_12 (<= 0.0 fluent_battery_level_r0@1))) (let ((.def_13 (= parameter_make_treatment_r@1 0.0))) (let ((.def_14 (= parameter_make_treatment_pallet@1 3.0))) (let ((.def_15 (= parameter_make_treatment_t@1 5.0))) (let ((.def_16 (= parameter_make_treatment_t@1 4.0))) (let ((.def_17 (or .def_16 .def_15))) (let ((.def_18 (= parameter_move_r@1 0.0))) (let ((.def_19 (= parameter_move_frompos@1 2.0))) (let ((.def_20 (= parameter_move_frompos@1 1.0))) (let ((.def_21 (or .def_20 .def_19))) (let ((.def_22 (= parameter_move_topos@1 2.0))) (let ((.def_23 (= parameter_move_topos@1 1.0))) (let ((.def_24 (or .def_23 .def_22))) (let ((.def_25 (= parameter_unload_at_depot_pallet@1 3.0))) (let ((.def_26 (= parameter_unload_at_depot_r@1 0.0))) (let ((.def_27 (= parameter_unload_at_depot_pos@1 2.0))) (let ((.def_28 (= parameter_unload_at_depot_pos@1 1.0))) (let ((.def_29 (or .def_28 .def_27))) (let ((.def_30 (= parameter_load_at_depot_pallet@1 3.0))) (let ((.def_31 (= parameter_load_at_depot_r@1 0.0))) (let ((.def_32 (= parameter_load_at_depot_pos@1 2.0))) (let ((.def_33 (= parameter_load_at_depot_pos@1 1.0))) (let ((.def_34 (or .def_33 .def_32))) (let ((.def_35 (and act_move@1 true .def_18))) (let ((.def_36 (= fluent_battery_level_r0@0 fluent_battery_level_r0@1))) (let ((.def_37 (not .def_36))) (let ((.def_38 (=> .def_37 .def_35))) (let ((.def_39 (and act_make_treatment@1 true .def_14 .def_8))) (let ((.def_40 (and act_unload_at_depot@1 true .def_25 .def_27))) (let ((.def_41 (and .def_40 .def_39))) (let ((.def_42 (not .def_41))) (let ((.def_43 (and act_load_at_depot@1 true .def_30 .def_32))) (let ((.def_44 (and .def_43 .def_39))) (let ((.def_45 (not .def_44))) (let ((.def_46 (and .def_43 .def_40))) (let ((.def_47 (not .def_46))) (let ((.def_48 (and act_load@1 true .def_1 .def_2))) (let ((.def_49 (and .def_48 .def_39))) (let ((.def_50 (not .def_49))) (let ((.def_51 (and .def_48 .def_40))) (let ((.def_52 (not .def_51))) (let ((.def_53 (and .def_48 .def_43))) (let ((.def_54 (not .def_53))) (let ((.def_55 (or .def_48 .def_43 .def_40 .def_39))) (let ((.def_56 (= fluent_pallet_at_plt0_p1@0 fluent_pallet_at_plt0_p1@1))) (let ((.def_57 (not .def_56))) (let ((.def_58 (=> .def_57 .def_55))) (let ((.def_59 (and act_make_treatment@1 true .def_14 .def_9))) (let ((.def_60 (and act_unload_at_depot@1 true .def_25 .def_28))) (let ((.def_61 (and .def_60 .def_59))) (let ((.def_62 (not .def_61))) (let ((.def_63 (and act_load_at_depot@1 true .def_30 .def_33))) (let ((.def_64 (and .def_63 .def_59))) (let ((.def_65 (not .def_64))) (let ((.def_66 (and .def_63 .def_60))) (let ((.def_67 (not .def_66))) (let ((.def_68 (and act_load@1 true .def_1 .def_3))) (let ((.def_69 (and .def_68 .def_59))) (let ((.def_70 (not .def_69))) (let ((.def_71 (and .def_68 .def_60))) (let ((.def_72 (not .def_71))) (let ((.def_73 (and .def_68 .def_63))) (let ((.def_74 (not .def_73))) (let ((.def_75 (or .def_68 .def_63 .def_60 .def_59))) (let ((.def_76 (= fluent_pallet_at_plt0_p0@0 fluent_pallet_at_plt0_p0@1))) (let ((.def_77 (not .def_76))) (let ((.def_78 (=> .def_77 .def_75))) (let ((.def_79 (and act_load@1 true .def_1 .def_5))) (let ((.def_80 (= fluent_treated_plt0_t1@0 fluent_treated_plt0_t1@1))) (let ((.def_81 (not .def_80))) (let ((.def_82 (=> .def_81 .def_79))) (let ((.def_83 (and act_load@1 true .def_1 .def_6))) (let ((.def_84 (= fluent_treated_plt0_t0@0 fluent_treated_plt0_t0@1))) (let ((.def_85 (not .def_84))) (let ((.def_86 (=> .def_85 .def_83))) (let ((.def_87 (and act_make_treatment@1 true .def_8))) (let ((.def_88 (and act_load@1 true .def_2))) (let ((.def_89 (and .def_88 .def_87))) (let ((.def_90 (not .def_89))) (let ((.def_91 (or .def_88 .def_87))) (let ((.def_92 (= fluent_position_free_p1@0 fluent_position_free_p1@1))) (let ((.def_93 (not .def_92))) (let ((.def_94 (=> .def_93 .def_91))) (let ((.def_95 (and act_make_treatment@1 true .def_9))) (let ((.def_96 (and act_load@1 true .def_3))) (let ((.def_97 (and .def_96 .def_95))) (let ((.def_98 (not .def_97))) (let ((.def_99 (or .def_96 .def_95))) (let ((.def_100 (= fluent_position_free_p0@0 fluent_position_free_p0@1))) (let ((.def_101 (not .def_100))) (let ((.def_102 (=> .def_101 .def_99))) (let ((.def_103 (+ t@1 2.0))) (let ((.def_104 (= t@1 .def_103))) (let ((.def_105 (and act_make_treatment@1 true .def_104 .def_14 .def_8 .def_15))) (let ((.def_106 (and act_load@1 true .def_1 .def_2 .def_5))) (let ((.def_107 (and .def_106 .def_105))) (let ((.def_108 (not .def_107))) (let ((.def_109 (or .def_106 .def_105))) (let ((.def_110 (= fluent_ready_plt0_p1_t1@0 fluent_ready_plt0_p1_t1@1))) (let ((.def_111 (not .def_110))) (let ((.def_112 (=> .def_111 .def_109))) (let ((.def_113 (and act_make_treatment@1 true .def_104 .def_14 .def_9 .def_15))) (let ((.def_114 (and act_load@1 true .def_1 .def_3 .def_5))) (let ((.def_115 (and .def_114 .def_113))) (let ((.def_116 (not .def_115))) (let ((.def_117 (or .def_114 .def_113))) (let ((.def_118 (= fluent_ready_plt0_p0_t1@0 fluent_ready_plt0_p0_t1@1))) (let ((.def_119 (not .def_118))) (let ((.def_120 (=> .def_119 .def_117))) (let ((.def_121 (and act_make_treatment@1 true .def_104 .def_14 .def_8 .def_16))) (let ((.def_122 (and act_load@1 true .def_1 .def_2 .def_6))) (let ((.def_123 (and .def_122 .def_121))) (let ((.def_124 (not .def_123))) (let ((.def_125 (or .def_122 .def_121))) (let ((.def_126 (= fluent_ready_plt0_p1_t0@0 fluent_ready_plt0_p1_t0@1))) (let ((.def_127 (not .def_126))) (let ((.def_128 (=> .def_127 .def_125))) (let ((.def_129 (and act_make_treatment@1 true .def_104 .def_14 .def_9 .def_16))) (let ((.def_130 (and act_load@1 true .def_1 .def_3 .def_6))) (let ((.def_131 (and .def_130 .def_129))) (let ((.def_132 (not .def_131))) (let ((.def_133 (or .def_130 .def_129))) (let ((.def_134 (= fluent_ready_plt0_p0_t0@0 fluent_ready_plt0_p0_t0@1))) (let ((.def_135 (not .def_134))) (let ((.def_136 (=> .def_135 .def_133))) (let ((.def_137 (and act_make_treatment@1 true .def_13 .def_14))) (let ((.def_138 (and act_unload_at_depot@1 true .def_26 .def_25))) (let ((.def_139 (and .def_138 .def_137))) (let ((.def_140 (not .def_139))) (let ((.def_141 (and act_load_at_depot@1 true .def_31 .def_30))) (let ((.def_142 (and .def_141 .def_137))) (let ((.def_143 (not .def_142))) (let ((.def_144 (and .def_141 .def_138))) (let ((.def_145 (not .def_144))) (let ((.def_146 (and act_load@1 true .def_0 .def_1))) (let ((.def_147 (and .def_146 .def_137))) (let ((.def_148 (not .def_147))) (let ((.def_149 (and .def_146 .def_138))) (let ((.def_150 (not .def_149))) (let ((.def_151 (and .def_146 .def_141))) (let ((.def_152 (not .def_151))) (let ((.def_153 (or .def_146 .def_141 .def_138 .def_137))) (let ((.def_154 (= fluent_robot_has_r0_plt0@0 fluent_robot_has_r0_plt0@1))) (let ((.def_155 (not .def_154))) (let ((.def_156 (=> .def_155 .def_153))) (let ((.def_157 (and act_make_treatment@1 true .def_13))) (let ((.def_158 (and act_unload_at_depot@1 true .def_26))) (let ((.def_159 (and .def_158 .def_157))) (let ((.def_160 (not .def_159))) (let ((.def_161 (and act_load_at_depot@1 true .def_31))) (let ((.def_162 (and .def_161 .def_157))) (let ((.def_163 (not .def_162))) (let ((.def_164 (and .def_161 .def_158))) (let ((.def_165 (not .def_164))) (let ((.def_166 (and act_load@1 true .def_0))) (let ((.def_167 (and .def_166 .def_157))) (let ((.def_168 (not .def_167))) (let ((.def_169 (and .def_166 .def_158))) (let ((.def_170 (not .def_169))) (let ((.def_171 (and .def_166 .def_161))) (let ((.def_172 (not .def_171))) (let ((.def_173 (or .def_166 .def_161 .def_158 .def_157))) (let ((.def_174 (= fluent_robot_free_r0@0 fluent_robot_free_r0@1))) (let ((.def_175 (not .def_174))) (let ((.def_176 (=> .def_175 .def_173))) (let ((.def_177 (and act_move@1 true .def_18 .def_19))) (let ((.def_178 (and act_move@1 true .def_18 .def_22))) (let ((.def_179 (and .def_178 .def_177))) (let ((.def_180 (not .def_179))) (let ((.def_181 (or .def_178 .def_177))) (let ((.def_182 (= fluent_robot_at_r0_p1@0 fluent_robot_at_r0_p1@1))) (let ((.def_183 (not .def_182))) (let ((.def_184 (=> .def_183 .def_181))) (let ((.def_185 (and act_move@1 true .def_18 .def_20))) (let ((.def_186 (and act_move@1 true .def_18 .def_23))) (let ((.def_187 (and .def_186 .def_185))) (let ((.def_188 (not .def_187))) (let ((.def_189 (or .def_186 .def_185))) (let ((.def_190 (= fluent_robot_at_r0_p0@0 fluent_robot_at_r0_p0@1))) (let ((.def_191 (not .def_190))) (let ((.def_192 (=> .def_191 .def_189))) (let ((.def_193 (and .def_192 .def_188 .def_184 .def_180 .def_176 .def_172 .def_170 .def_168 .def_165 .def_163 .def_160 .def_156 .def_152 .def_150 .def_148 .def_145 .def_143 .def_140 .def_136 .def_132 .def_128 .def_124 .def_120 .def_116 .def_112 .def_108 .def_102 .def_98 .def_94 .def_90 .def_86 .def_82 .def_78 .def_74 .def_72 .def_70 .def_67 .def_65 .def_62 .def_58 .def_54 .def_52 .def_50 .def_47 .def_45 .def_42 .def_38))) (let ((.def_194 (= t@1 t@1))) (let ((.def_195 (and act_make_treatment@1 act_load@1 .def_194))) (let ((.def_196 (not .def_195))) (let ((.def_197 (= .def_103 t@1))) (let ((.def_198 (and act_make_treatment@1 act_load@1 .def_197))) (let ((.def_199 (not .def_198))) (let ((.def_200 (and act_make_treatment@1 act_load_at_depot@1 .def_194))) (let ((.def_201 (not .def_200))) (let ((.def_202 (and act_move@1 act_load@1 .def_194))) (let ((.def_203 (not .def_202))) (let ((.def_204 (and act_move@1 act_load_at_depot@1 .def_194))) (let ((.def_205 (not .def_204))) (let ((.def_206 (and act_move@1 act_unload_at_depot@1 .def_194))) (let ((.def_207 (not .def_206))) (let ((.def_208 (and act_load_at_depot@1 act_unload_at_depot@1 .def_194))) (let ((.def_209 (not .def_208))) (let ((.def_210 (+ t@1 dur_make_treatment@1))) (let ((.def_211 (= t@1 .def_210))) (let ((.def_212 (and act_load@1 act_make_treatment@1 .def_211))) (let ((.def_213 (not .def_212))) (let ((.def_214 (and act_unload_at_depot@1 act_load@1 .def_194))) (let ((.def_215 (not .def_214))) (let ((.def_216 (and act_make_treatment@1 act_move@1 .def_194))) (let ((.def_217 (not .def_216))) (let ((.def_218 (and act_load_at_depot@1 act_load@1 .def_194))) (let ((.def_219 (not .def_218))) (let ((.def_220 (and act_make_treatment@1 act_unload_at_depot@1 .def_194))) (let ((.def_221 (not .def_220))) (let ((.def_222 (and .def_221 .def_219 .def_217 .def_215 .def_213 .def_209 .def_207 .def_205 .def_203 .def_201 .def_199 .def_196))) (let ((.def_223 (<= 0.0 t@1))) (let ((.def_224 (and .def_14 .def_8 .def_16))) (let ((.def_225 (ite .def_224 fluent_ready_plt0_p1_t0@1 fluent_ready_plt0_p0_t0@1))) (let ((.def_226 (and .def_14 .def_9 .def_15))) (let ((.def_227 (ite .def_226 fluent_ready_plt0_p0_t1@1 .def_225))) (let ((.def_228 (and .def_14 .def_8 .def_15))) (let ((.def_229 (ite .def_228 fluent_ready_plt0_p1_t1@1 .def_227))) (let ((.def_230 (= .def_229 true))) (let ((.def_231 (=> true .def_230))) (let ((.def_232 (and .def_104 .def_231))) (let ((.def_233 (= fluent_robot_free_r0@1 true))) (let ((.def_234 (=> true .def_233))) (let ((.def_235 (and .def_14 .def_8))) (let ((.def_236 (ite .def_235 fluent_pallet_at_plt0_p1@1 fluent_pallet_at_plt0_p0@1))) (let ((.def_237 (= .def_236 true))) (let ((.def_238 (=> true .def_237))) (let ((.def_239 (= fluent_robot_has_r0_plt0@1 false))) (let ((.def_240 (=> true .def_239))) (let ((.def_241 (ite .def_8 fluent_position_free_p1@1 fluent_position_free_p0@1))) (let ((.def_242 (= .def_241 false))) (let ((.def_243 (=> true .def_242))) (let ((.def_244 (and .def_194 .def_243 .def_240 .def_238 .def_234))) (let ((.def_245 (ite .def_8 fluent_position_free_p1@0 fluent_position_free_p0@0))) (let ((.def_246 (and .def_14 .def_15))) (let ((.def_247 (ite .def_246 fluent_treated_plt0_t1@0 fluent_treated_plt0_t0@0))) (let ((.def_248 (and .def_247 .def_245))) (let ((.def_249 (<= .def_210 t@1))) (let ((.def_250 (< (- 1.0) .def_210))) (let ((.def_251 (and .def_250 .def_249))) (let ((.def_252 (=> .def_251 .def_248))) (let ((.def_253 (not .def_247))) (let ((.def_254 (and .def_13 .def_8))) (let ((.def_255 (ite .def_254 fluent_robot_at_r0_p1@0 fluent_robot_at_r0_p0@0))) (let ((.def_256 (and .def_8 .def_16))) (let ((.def_257 (ite .def_256 false true))) (let ((.def_258 (and .def_9 .def_15))) (let ((.def_259 (ite .def_258 true .def_257))) (let ((.def_260 (and .def_8 .def_15))) (let ((.def_261 (ite .def_260 false .def_259))) (let ((.def_262 (and .def_261 .def_245 .def_255 fluent_robot_has_r0_plt0@0 .def_253))) (let ((.def_263 (<= t@1 t@1))) (let ((.def_264 (< (- 1.0) t@1))) (let ((.def_265 (and .def_264 .def_263))) (let ((.def_266 (=> .def_265 .def_262))) (let ((.def_267 (<= dur_make_treatment@1 4.0))) (let ((.def_268 (<= 4.0 dur_make_treatment@1))) (let ((.def_269 (and .def_268 .def_267))) (let ((.def_270 (and .def_269 .def_249 .def_266 .def_252 .def_244 .def_232))) (let ((.def_271 (=> act_make_treatment@1 .def_270))) (let ((.def_272 (and .def_25 .def_27))) (let ((.def_273 (ite .def_272 fluent_pallet_at_plt0_p1@1 fluent_pallet_at_plt0_p0@1))) (let ((.def_274 (= .def_273 true))) (let ((.def_275 (=> true .def_274))) (let ((.def_276 (and .def_26 .def_27))) (let ((.def_277 (ite .def_276 fluent_robot_at_r0_p1@0 fluent_robot_at_r0_p0@0))) (let ((.def_278 (ite .def_27 true false))) (let ((.def_279 (and .def_278 .def_277 fluent_robot_has_r0_plt0@0 .def_275 .def_234 .def_240))) (let ((.def_280 (=> act_unload_at_depot@1 .def_279))) (let ((.def_281 (and .def_30 .def_32))) (let ((.def_282 (ite .def_281 fluent_pallet_at_plt0_p1@1 fluent_pallet_at_plt0_p0@1))) (let ((.def_283 (= .def_282 false))) (let ((.def_284 (=> true .def_283))) (let ((.def_285 (= fluent_robot_has_r0_plt0@1 true))) (let ((.def_286 (=> true .def_285))) (let ((.def_287 (= fluent_robot_free_r0@1 false))) (let ((.def_288 (=> true .def_287))) (let ((.def_289 (ite .def_281 fluent_pallet_at_plt0_p1@0 fluent_pallet_at_plt0_p0@0))) (let ((.def_290 (and .def_31 .def_32))) (let ((.def_291 (ite .def_290 fluent_robot_at_r0_p1@0 fluent_robot_at_r0_p0@0))) (let ((.def_292 (ite .def_32 true false))) (let ((.def_293 (and .def_292 .def_291 fluent_robot_free_r0@0 .def_289 .def_288 .def_286 .def_284))) (let ((.def_294 (=> act_load_at_depot@1 .def_293))) (let ((.def_295 (ite .def_2 fluent_position_free_p1@1 fluent_position_free_p0@1))) (let ((.def_296 (= .def_295 true))) (let ((.def_297 (=> true .def_296))) (let ((.def_298 (and .def_1 .def_5))) (let ((.def_299 (ite .def_298 fluent_treated_plt0_t1@1 fluent_treated_plt0_t0@1))) (let ((.def_300 (= .def_299 true))) (let ((.def_301 (=> true .def_300))) (let ((.def_302 (and .def_1 .def_2))) (let ((.def_303 (ite .def_302 fluent_pallet_at_plt0_p1@1 fluent_pallet_at_plt0_p0@1))) (let ((.def_304 (= .def_303 false))) (let ((.def_305 (=> true .def_304))) (let ((.def_306 (and .def_1 .def_2 .def_6))) (let ((.def_307 (ite .def_306 fluent_ready_plt0_p1_t0@1 fluent_ready_plt0_p0_t0@1))) (let ((.def_308 (and .def_1 .def_3 .def_5))) (let ((.def_309 (ite .def_308 fluent_ready_plt0_p0_t1@1 .def_307))) (let ((.def_310 (and .def_1 .def_2 .def_5))) (let ((.def_311 (ite .def_310 fluent_ready_plt0_p1_t1@1 .def_309))) (let ((.def_312 (= .def_311 false))) (let ((.def_313 (=> true .def_312))) (let ((.def_314 (ite .def_302 fluent_pallet_at_plt0_p1@0 fluent_pallet_at_plt0_p0@0))) (let ((.def_315 (and .def_0 .def_2))) (let ((.def_316 (ite .def_315 fluent_robot_at_r0_p1@0 fluent_robot_at_r0_p0@0))) (let ((.def_317 (ite .def_306 fluent_ready_plt0_p1_t0@0 fluent_ready_plt0_p0_t0@0))) (let ((.def_318 (ite .def_308 fluent_ready_plt0_p0_t1@0 .def_317))) (let ((.def_319 (ite .def_310 fluent_ready_plt0_p1_t1@0 .def_318))) (let ((.def_320 (and .def_319 .def_316 fluent_robot_free_r0@0 .def_314 .def_288 .def_313 .def_305 .def_286 .def_301 .def_297))) (let ((.def_321 (=> act_load@1 .def_320))) (let ((.def_322 (and .def_19 .def_23))) (let ((.def_323 (ite .def_322 1.0 0.0))) (let ((.def_324 (and .def_20 .def_22))) (let ((.def_325 (ite .def_324 1.0 .def_323))) (let ((.def_326 (and .def_19 .def_22))) (let ((.def_327 (ite .def_326 0.0 .def_325))) (let ((.def_328 (- fluent_battery_level_r0@0 .def_327))) (let ((.def_329 (= fluent_battery_level_r0@1 .def_328))) (let ((.def_330 (=> true .def_329))) (let ((.def_331 (and .def_18 .def_19))) (let ((.def_332 (ite .def_331 fluent_robot_at_r0_p1@1 fluent_robot_at_r0_p0@1))) (let ((.def_333 (= .def_332 false))) (let ((.def_334 (=> true .def_333))) (let ((.def_335 (and .def_18 .def_22))) (let ((.def_336 (ite .def_335 fluent_robot_at_r0_p1@1 fluent_robot_at_r0_p0@1))) (let ((.def_337 (= .def_336 true))) (let ((.def_338 (=> true .def_337))) (let ((.def_339 (<= .def_327 fluent_battery_level_r0@0))) (let ((.def_340 (ite .def_331 fluent_robot_at_r0_p1@0 fluent_robot_at_r0_p0@0))) (let ((.def_341 (= parameter_move_frompos@1 parameter_move_topos@1))) (let ((.def_342 (not .def_341))) (let ((.def_343 (and .def_342 .def_340 .def_339 .def_338 .def_334 .def_330))) (let ((.def_344 (=> act_move@1 .def_343))) (let ((.def_345 (<= 0.0 fluent_battery_level_r0@0))) (let ((.def_346 (<= fluent_battery_level_r0@0 100.0))) (let ((.def_347 (= false false))) (let ((.def_348 (= fluent_pallet_at_plt0_p0@0 false))) (let ((.def_349 (= fluent_treated_plt0_t1@0 false))) (let ((.def_350 (= fluent_treated_plt0_t0@0 false))) (let ((.def_351 (= fluent_ready_plt0_p1_t1@0 false))) (let ((.def_352 (= fluent_ready_plt0_p0_t1@0 false))) (let ((.def_353 (= fluent_ready_plt0_p1_t0@0 false))) (let ((.def_354 (= fluent_ready_plt0_p0_t0@0 false))) (let ((.def_355 (= fluent_robot_has_r0_plt0@0 false))) (let ((.def_356 (= fluent_robot_at_r0_p0@0 false))) (let ((.def_357 (= true true))) (let ((.def_358 (= fluent_position_free_p1@0 true))) (let ((.def_359 (= fluent_position_free_p0@0 true))) (let ((.def_360 (= 0.0 0.0))) (let ((.def_361 (= 1.0 1.0))) (let ((.def_362 (= fluent_battery_level_r0@0 4.0))) (let ((.def_363 (= fluent_pallet_at_plt0_p1@0 true))) (let ((.def_364 (= fluent_robot_free_r0@0 true))) (let ((.def_365 (= fluent_robot_at_r0_p1@0 true))) (let ((.def_366 (and .def_365 .def_364 .def_363 .def_362 .def_360 .def_361 .def_361 .def_360 .def_357 .def_359 .def_358 .def_357 .def_357 .def_356 .def_355 .def_354 .def_353 .def_352 .def_351 .def_350 .def_349 .def_348 .def_347 .def_347 .def_347 .def_346 .def_345))) (let ((.def_367 (and .def_366 .def_344 .def_321 .def_294 .def_280 .def_271 .def_223 .def_222 true .def_193 .def_34 .def_31 .def_30 .def_29 .def_26 .def_25 .def_24 .def_21 .def_18 .def_17 .def_14 .def_13 .def_12 .def_11 .def_10 .def_7 .def_4 .def_1 .def_0 true))) .def_367)))))))))))))))))))))))))))))))))))))))))))))))))))))))))))))))))))))))))))))))))))))))))))))))))))))))))))))))))))))))))))))))))))))))))))))))))))))))))))))))))))))))))))))))))))))))))))))))))))))))))))))))))))))))))))))))))))))))))))))))))))))))))))))))))))))))))))))))))))))))))))))))))))))))))))))))))))))))))))))))))))))))))))))))))))))))))))))))))))))))))))))))))
(check-sat)

--------------------------------------------------------------------------------
